
List of user-set options:

                                    Name   Value                used
                           compl_inf_tol = 1                     yes
                         constr_viol_tol = 1                     yes
                            dual_inf_tol = 1000                  yes
                           linear_solver = ma97                  yes
                              ma86_small = 1e-30                  no
                                  ma86_u = 0.0001                 no
                              ma97_order = best                  yes
                              ma97_small = 1e-30                 yes
                            ma97_switch1 = at_start              yes
                            ma97_switch2 = od_hd_reuse           yes
                                  ma97_u = 1e-06                 yes
                               ma97_umax = 0.5                   yes
                                max_iter = 1000                  yes
                    max_refinement_steps = 20                    yes
                    min_refinement_steps = 5                     yes
                                 mu_init = 1e-06                 yes
           mu_superlinear_decrease_power = 1.25                  yes
                   nlp_scaling_min_value = 1e-08                 yes
                        option_file_name = Preset_Case:_952_NCP.opt  yes
                             output_file = ./tmp/Preset_Case:_952_NCP.output  yes
                      print_user_options = yes                   yes
        required_infeasibility_reduction = 1                      no
                                     tol = 1e-08                 yes
                   warm_start_bound_frac = 1e-20                 yes
                   warm_start_bound_push = 1e-20                 yes
                   warm_start_init_point = yes                   yes
              warm_start_mult_bound_push = 1e-20                 yes
                warm_start_mult_init_max = 1e+40                 yes
             warm_start_slack_bound_frac = 1e-20                 yes
             warm_start_slack_bound_push = 1e-20                 yes

******************************************************************************
This program contains Ipopt, a library for large-scale nonlinear optimization.
 Ipopt is released as open source code under the Eclipse Public License (EPL).
         For more information visit http://projects.coin-or.org/Ipopt
******************************************************************************

This is Ipopt version 3.12.10, running with linear solver ma97.

Number of nonzeros in equality constraint Jacobian...:   117167
Number of nonzeros in inequality constraint Jacobian.:      213
Number of nonzeros in Lagrangian Hessian.............:    47513

Total number of variables............................:    29977
                     variables with only lower bounds:    11312
                variables with lower and upper bounds:    15135
                     variables with only upper bounds:        0
Total number of equality constraints.................:    29864
Total number of inequality constraints...............:       25
        inequality constraints with only lower bounds:        4
   inequality constraints with lower and upper bounds:        0
        inequality constraints with only upper bounds:       21

iter    objective    inf_pr   inf_du lg(mu)  ||d||  lg(rg) alpha_du alpha_pr  ls
   0 -1.2222979e-01 1.62e-01 2.00e+00  -6.0 0.00e+00    -  0.00e+00 0.00e+00   0
In iteration 0, 9 Slacks too small, adjusting variable bounds
   1 -1.2222979e-01 1.62e-01 2.43e+03  -6.0 1.17e+10    -  2.42e-13 3.72e-19h  1
   2 -1.2222987e-01 1.62e-01 2.43e+03  -6.0 1.79e+02    -  1.76e-07 1.22e-05f  1
   3 -1.2222988e-01 1.62e-01 2.39e+03  -6.0 5.54e+01    -  5.26e-02 1.05e-06h  2
   4 -1.2223042e-01 1.62e-01 2.39e+03  -6.0 1.61e+02    -  8.64e-04 6.29e-05h  1
   5 -1.2275310e-01 1.59e-01 2.36e+03  -6.0 1.76e+02    -  3.95e-02 1.75e-02f  1
   6 -1.2469061e-01 2.26e-01 2.22e+03  -6.0 9.42e+01    -  1.78e-02 8.43e-02f  1
   7 -1.2487630e-01 2.75e-01 2.76e+03  -6.0 1.51e+02    -  7.93e-02 2.19e-02h  1
   8 -1.2556942e-01 2.87e-01 2.73e+03  -6.0 2.07e+02    -  3.33e-02 1.14e-02h  1
   9 -1.2913428e-01 7.13e-01 7.94e+03  -6.0 2.20e+02    -  5.87e-03 5.55e-02h  1
iter    objective    inf_pr   inf_du lg(mu)  ||d||  lg(rg) alpha_du alpha_pr  ls
  10 -1.3268508e-01 1.29e+00 2.48e+04  -6.0 2.55e+02    -  2.54e-02 6.57e-02h  1
  11 -1.3317317e-01 1.30e+00 3.30e+04  -6.0 1.90e+02    -  7.11e-02 3.38e-02h  1
  12 -1.3346353e-01 1.30e+00 3.28e+04  -6.0 4.10e+02    -  6.00e-02 5.81e-03h  1
  13 -1.3645212e-01 1.75e+00 3.07e+04  -6.0 4.21e+02    -  1.46e-01 6.47e-02h  1
  14 -1.3745411e-01 1.85e+00 2.93e+04  -6.0 5.02e+02    -  1.18e-01 4.53e-02h  1
  15r-1.3745411e-01 1.85e+00 1.00e+03  -0.3 0.00e+00    -  0.00e+00 4.07e-07R  5
  16r-1.3764768e-01 1.85e+00 4.77e+03  -0.3 1.41e+06    -  6.49e-07 8.50e-07f  1
  17 -1.3767182e-01 1.85e+00 8.71e+06  -6.0 3.02e+02    -  8.88e-02 8.55e-04h  1
  18 -1.3773121e-01 1.85e+00 2.00e+07  -6.0 3.20e+02    -  8.56e-04 1.96e-03h  1
  19 -1.3813426e-01 1.84e+00 1.98e+07  -6.0 3.46e+02    -  5.09e-02 1.23e-02h  1
iter    objective    inf_pr   inf_du lg(mu)  ||d||  lg(rg) alpha_du alpha_pr  ls
  20 -1.3940646e-01 1.96e+00 1.90e+07  -6.0 3.75e+02    -  1.61e-02 3.98e-02h  1
  21 -1.3984189e-01 1.96e+00 1.86e+07  -6.0 3.88e+02    -  1.61e-01 1.92e-02h  1
  22 -1.4128544e-01 2.37e+00 1.73e+07  -6.0 3.77e+02    -  1.09e-01 6.97e-02h  1
  23r-1.4128544e-01 2.37e+00 1.00e+03  -0.2 0.00e+00    -  0.00e+00 2.73e-07R  5
  24r-1.4121759e-01 2.37e+00 8.22e+03  -0.2 8.00e+03    -  1.02e-06 1.89e-06f  1
  25 -1.4121780e-01 2.37e+00 4.10e+03  -6.0 2.09e+02    -  1.30e-01 3.26e-05h  1
  26 -1.4151280e-01 2.35e+00 2.70e+04  -6.0 2.83e+02    -  2.01e-01 1.80e-02h  1
  27 -1.4252391e-01 2.60e+00 8.35e+05  -6.0 2.53e+02    -  1.72e-05 5.84e-02h  1
  28 -1.4392107e-01 3.74e+00 7.40e+05  -6.0 2.53e+02    -  5.74e-02 1.11e-01h  1
  29 -1.4389701e-01 3.73e+00 7.29e+05  -6.0 1.92e+02    -  1.28e-01 1.51e-02h  1
iter    objective    inf_pr   inf_du lg(mu)  ||d||  lg(rg) alpha_du alpha_pr  ls
  30 -1.4410600e-01 3.67e+00 7.02e+05  -6.0 2.92e+02    -  1.78e-01 3.57e-02h  2
  31 -1.4555627e-01 3.14e+00 6.29e+05  -6.0 4.47e+02    -  8.69e-02 1.01e-01h  1
  32 -1.4751374e-01 5.69e+00 5.51e+05  -6.0 5.37e+02    -  1.22e-02 1.17e-01h  1
  33 -1.4851805e-01 6.21e+00 5.15e+05  -6.0 5.01e+02    -  5.32e-02 6.40e-02h  1
  34 -1.4911580e-01 6.13e+00 5.07e+05  -6.0 5.06e+02    -  4.70e-02 1.56e-02h  1
  35 -1.5701876e-01 7.15e+00 3.88e+05  -6.0 4.98e+02    -  6.46e-02 2.05e-01f  1
  36 -1.5699946e-01 7.15e+00 3.88e+05  -6.0 1.73e+03  -4.0 1.90e-07 7.22e-05h  1
  37 -1.5690617e-01 7.12e+00 3.86e+05  -6.0 3.05e+02  -3.6 1.83e-06 4.31e-03h  4
  38 -1.5696867e-01 7.05e+00 3.82e+05  -6.0 1.83e+02  -3.1 4.60e-02 9.60e-03h  1
  39 -1.5695667e-01 6.94e+00 3.76e+05  -6.0 2.52e+02  -3.6 2.20e-06 1.60e-02h  2
iter    objective    inf_pr   inf_du lg(mu)  ||d||  lg(rg) alpha_du alpha_pr  ls
  40 -1.5702384e-01 6.91e+00 3.75e+05  -6.0 9.85e+01  -2.3 2.06e-02 3.37e-03h  1
  41 -1.5720330e-01 6.74e+00 3.65e+05  -6.0 1.17e+02  -2.8 2.27e-06 2.60e-02f  1
  42 -1.5724917e-01 6.74e+00 3.65e+05  -6.0 5.04e+02    -  3.80e-02 7.27e-04h  1
  43 -1.5801189e-01 6.55e+00 1.66e+06  -6.0 6.30e+02    -  1.73e-01 4.00e-02f  1
  44 -1.6175624e-01 6.87e+00 8.15e+05  -6.0 6.64e+02    -  1.22e-01 1.87e-01h  1
  45 -1.6192448e-01 6.85e+00 5.14e+06  -6.0 2.05e+02  -3.3 9.62e-02 3.64e-03h  1
  46 -1.6290619e-01 6.70e+00 5.24e+06  -6.0 3.11e+03    -  1.34e-05 2.16e-02h  1
  47 -1.6292502e-01 6.70e+00 5.51e+06  -6.0 7.34e+02    -  2.11e-01 6.46e-04h  1
  48 -1.6825365e-01 5.79e+00 4.08e+06  -6.0 8.05e+02    -  1.35e-01 2.27e-01h  1
  49r-1.6825365e-01 5.79e+00 1.00e+03   0.2 0.00e+00    -  0.00e+00 3.21e-07R  4
iter    objective    inf_pr   inf_du lg(mu)  ||d||  lg(rg) alpha_du alpha_pr  ls
  50r-1.6823410e-01 5.79e+00 1.28e+03   0.2 4.99e+06    -  3.03e-06 1.09e-07f  1
  51r-1.6750885e-01 5.76e+00 2.11e+04   0.2 1.48e+04    -  3.61e-06 6.37e-06f  1
  52 -1.6751100e-01 5.76e+00 2.63e+01  -6.0 2.87e+02    -  1.91e-03 6.11e-04h  1
  53 -1.6751871e-01 5.75e+00 5.94e+05  -6.0 4.75e+02    -  6.98e-02 2.22e-04h  1
  54 -1.6752849e-01 5.75e+00 7.99e+05  -6.0 4.70e+02    -  2.87e-02 2.51e-04h  1
  55 -1.7031212e-01 5.26e+00 9.80e+05  -6.0 5.68e+02    -  1.17e-01 8.71e-02h  1
  56 -1.7147306e-01 4.90e+00 1.25e+06  -6.0 4.92e+02    -  1.24e-01 7.02e-02h  1
  57 -1.7159387e-01 4.80e+00 3.06e+06  -6.0 5.31e+02    -  2.82e-01 2.03e-02h  1
  58 -1.7165701e-01 4.63e+00 3.38e+06  -6.0 5.43e+02    -  1.64e-01 3.55e-02h  1
  59 -1.7164368e-01 3.63e+00 2.56e+06  -6.0 5.16e+02    -  2.22e-01 2.36e-01h  1
iter    objective    inf_pr   inf_du lg(mu)  ||d||  lg(rg) alpha_du alpha_pr  ls
  60 -1.7165737e-01 2.70e+00 1.83e+06  -6.0 6.40e+02    -  3.52e-01 2.58e-01H  1
  61 -1.7083120e-01 1.14e+00 1.01e+05  -6.0 3.11e+02    -  2.66e-06 5.82e-01h  1
  62 -1.7030083e-01 2.12e+00 3.23e+05  -6.0 6.52e+02    -  4.99e-02 4.93e-01H  1
  63 -1.6919849e-01 1.20e+00 6.18e+05  -6.0 6.24e+01    -  1.43e-01 4.35e-01h  1
  64 -1.6944503e-01 2.41e-03 1.54e+06  -6.0 8.63e+00    -  1.45e-03 1.00e+00h  1
  65 -1.6944477e-01 2.41e-03 4.98e+05  -6.0 9.00e+02    -  5.57e-02 9.02e-05h  9
  66 -1.6961456e-01 2.41e-01 3.50e+05  -6.0 1.67e+03    -  1.62e-02 1.88e-02H  1
  67 -1.6936193e-01 2.25e-01 3.23e+06  -6.0 4.23e+01    -  3.04e-01 6.68e-02h  1
  68 -1.7348984e-01 1.93e-01 1.21e+07  -6.0 8.24e+01    -  2.27e-01 1.00e+00h  1
  69 -1.7308354e-01 5.78e-02 4.23e+06  -6.0 6.02e+00    -  2.28e-01 7.02e-01h  1
iter    objective    inf_pr   inf_du lg(mu)  ||d||  lg(rg) alpha_du alpha_pr  ls
  70r-1.7308354e-01 5.78e-02 1.00e+03  -1.5 0.00e+00    -  0.00e+00 3.27e-07R  2
  71r-1.7296162e-01 5.57e-02 1.00e+03  -1.5 2.38e+03    -  9.06e-05 5.49e-05f  1
  72 -1.7295787e-01 4.65e-02 1.59e+07  -6.0 1.25e+00    -  3.26e-01 1.66e-01h  1
  73 -1.7293231e-01 1.87e-04 1.62e+08  -6.0 6.32e-01    -  1.66e-01 1.00e+00h  1
  74 -1.7294666e-01 2.13e-06 2.35e+02  -6.0 9.94e-02    -  8.61e-01 1.00e+00h  1
  75 -1.7305171e-01 1.10e-04 1.11e+01  -6.0 7.41e-01    -  6.14e-01 1.00e+00h  1
  76 -1.7343780e-01 2.04e-03 1.98e+00  -6.0 2.34e+00    -  8.54e-01 1.00e+00h  1
  77 -1.7572807e-01 1.70e-01 1.01e+03  -6.0 1.21e+01    -  2.57e-01 1.00e+00H  1
  78 -1.7771654e-01 4.06e-02 8.55e+01  -6.0 1.43e+01    -  4.42e-01 1.00e+00h  1
  79 -1.8037107e-01 9.50e-02 1.49e+01  -6.0 2.14e+01    -  4.46e-01 1.00e+00h  1
iter    objective    inf_pr   inf_du lg(mu)  ||d||  lg(rg) alpha_du alpha_pr  ls
  80 -1.8177053e-01 3.65e-02 5.72e+00  -6.0 2.57e+01    -  7.53e-01 6.46e-01h  1
  81 -1.8207774e-01 3.44e-02 5.34e+00  -6.0 1.66e+02    -  3.53e-01 7.22e-02h  1
  82 -1.8204306e-01 2.83e-02 4.40e+00  -6.0 3.40e-01  -3.7 1.04e-01 1.79e-01h  1
  83 -1.8195234e-01 9.87e-03 1.55e+00  -6.0 5.08e-01  -4.2 5.90e-01 6.50e-01h  1
  84 -1.8198584e-01 4.89e-03 7.04e-01  -6.0 1.08e+00  -4.7 9.99e-01 5.11e-01f  1
  85 -1.8225453e-01 1.39e-02 2.96e-01  -6.0 3.13e+00  -5.2 8.75e-01 1.00e+00h  1
  86 -1.8283007e-01 9.58e-02 4.67e+00  -6.0 6.72e+00  -5.6 1.00e+00 1.00e+00h  1
  87 -1.8286766e-01 9.17e-02 4.46e+00  -6.0 8.18e+00  -6.1 7.89e-01 5.10e-02h  1
  88 -1.8290177e-01 1.72e-01 4.42e+00  -6.0 4.79e+02  -6.6 1.74e-02 6.35e-03h  1
  89 -1.8292834e-01 1.93e+00 1.31e+01  -6.0 8.37e+02  -7.1 2.46e-02 2.45e-02h  1
iter    objective    inf_pr   inf_du lg(mu)  ||d||  lg(rg) alpha_du alpha_pr  ls
  90 -1.8289557e-01 1.80e+00 1.46e+01  -6.0 2.14e+01  -5.7 5.71e-01 7.28e-02h  1
  91 -1.8351434e-01 2.86e-01 1.64e+00  -6.0 1.86e+01  -6.2 7.87e-01 1.00e+00h  1
  92 -1.8386891e-01 8.73e-01 6.84e+00  -6.0 5.40e+01  -6.7 9.29e-01 3.11e-01h  1
  93 -1.8394229e-01 7.40e-01 4.01e+00  -6.0 9.64e+00  -6.3 5.58e-01 1.48e-01h  1
  94 -1.8412865e-01 5.18e-01 1.90e+00  -6.0 2.26e+01  -6.7 5.81e-01 2.98e-01f  1
  95 -1.8540192e-01 3.80e-01 7.48e-01  -6.0 7.10e+01  -7.2 1.00e+00 7.47e-01h  1
  96 -1.9011081e-01 4.95e+00 4.40e+00  -6.0 3.01e+02  -7.7 4.10e-01 9.93e-01h  1
  97 -1.9152806e-01 3.32e+00 6.31e+01  -6.0 1.38e+02  -7.3 2.89e-03 5.63e-01h  1
  98 -1.9199028e-01 2.89e+00 1.18e+02  -6.0 2.12e+02  -7.7 6.93e-01 1.95e-01f  1
  99 -1.9883118e-01 4.29e+00 1.35e+02  -6.0 7.31e+02  -8.2 7.92e-01 6.24e-01h  1
iter    objective    inf_pr   inf_du lg(mu)  ||d||  lg(rg) alpha_du alpha_pr  ls
 100 -1.9886058e-01 4.25e+00 1.40e+03  -6.0 2.15e+02  -7.8 9.78e-02 9.94e-03h  1
 101 -2.0023150e-01 4.88e+00 6.56e+02  -6.0 1.74e+03  -8.3 5.36e-01 1.19e-01h  1
 102 -2.0292388e-01 5.58e+00 7.48e+02  -6.0 6.15e+02  -7.9 1.35e-01 4.64e-01h  1
 103 -2.0371975e-01 7.04e+00 3.34e+02  -6.0 4.31e+02  -7.4 5.38e-01 8.38e-02h  1
 104 -2.0503334e-01 1.19e+01 2.51e+02  -6.0 3.26e+02  -7.9 2.94e-01 2.07e-01h  1
 105 -2.0658497e-01 9.79e+00 8.19e+02  -6.0 1.25e+03  -8.4 2.66e-02 1.76e-01h  1
 106 -2.0774491e-01 9.08e+00 7.57e+02  -6.0 2.21e+03  -8.9 1.37e-01 7.18e-02h  1
 107 -2.0777034e-01 8.51e+00 6.98e+02  -6.0 1.38e+03  -8.4 5.33e-02 6.99e-02h  1
 108 -2.1112589e-01 6.97e+00 1.09e+04  -6.0 1.82e+03  -8.9 4.38e-04 1.94e-01h  1
 109 -2.1132831e-01 6.61e+00 1.04e+04  -6.0 6.28e+02  -8.5 5.17e-01 5.15e-02h  1
iter    objective    inf_pr   inf_du lg(mu)  ||d||  lg(rg) alpha_du alpha_pr  ls
 110 -2.1293546e-01 5.75e+00 8.99e+03  -6.0 1.43e+03  -9.0 3.16e-01 1.33e-01h  1
 111 -2.1361333e-01 4.43e+00 6.17e+03  -6.0 3.16e+02  -7.6 1.49e-01 3.14e-01h  1
 112 -2.1550893e-01 4.31e+00 4.51e+03  -6.0 6.37e+02  -8.1 1.00e-01 2.70e-01h  1
 113 -2.1522836e-01 9.42e-01 8.22e+03  -6.0 7.30e+01  -5.9 2.07e-01 1.00e+00h  1
 114 -2.1525478e-01 7.63e-01 6.47e+03  -6.0 1.13e+00  -4.5 3.78e-01 1.91e-01h  1
 115 -2.1534525e-01 5.98e-01 5.13e+03  -6.0 7.00e+00  -5.0 1.34e-01 2.18e-01h  1
 116 -2.1562852e-01 3.32e-01 3.10e+03  -6.0 6.49e+00  -5.5 3.38e-02 4.46e-01f  1
 117 -2.1580689e-01 1.75e-01 7.78e+02  -6.0 2.42e+00  -5.1 6.18e-01 7.74e-01f  1
 118 -2.1640888e-01 1.07e+00 2.01e+02  -6.0 7.43e+00  -5.6 6.75e-01 7.65e-01f  1
 119 -2.1798388e-01 1.01e+01 6.53e+01  -6.0 2.35e+01  -6.0 5.37e-01 7.24e-01h  1
iter    objective    inf_pr   inf_du lg(mu)  ||d||  lg(rg) alpha_du alpha_pr  ls
 120 -2.1817745e-01 8.72e+00 5.46e+01  -6.0 4.29e+01  -6.5 2.67e-01 1.48e-01h  1
 121 -2.1836790e-01 5.62e+00 3.42e+01  -6.0 9.94e+00  -6.1 5.20e-01 3.60e-01h  1
 122 -2.1851623e-01 1.85e+00 1.62e+01  -6.0 3.49e+00  -5.7 1.66e-01 6.69e-01h  1
 123 -2.1893015e-01 9.15e-01 1.45e+01  -6.0 1.72e+01  -6.1 3.47e-01 5.34e-01h  1
 124 -2.1897400e-01 7.53e-01 1.13e+01  -6.0 6.18e+00  -5.7 6.61e-01 1.89e-01h  1
 125 -2.1903837e-01 1.16e-03 6.34e+00  -6.0 2.74e-01  -4.4 1.00e+00 1.00e+00h  1
 126 -2.1908136e-01 1.91e-03 5.37e+00  -6.0 7.02e-01  -4.9 1.00e+00 1.00e+00h  1
 127 -2.1909088e-01 8.87e-04 1.51e+01  -6.0 2.52e-01  -4.4 1.00e+00 5.84e-01h  1
 128 -2.1913063e-01 1.32e-03 2.97e+01  -6.0 6.83e-01  -4.9 1.00e+00 8.43e-01f  1
 129 -2.1926239e-01 1.43e-02 1.16e+00  -6.0 1.97e+00  -5.4 1.00e+00 1.00e+00f  1
iter    objective    inf_pr   inf_du lg(mu)  ||d||  lg(rg) alpha_du alpha_pr  ls
 130 -2.1937992e-01 2.58e-02 3.16e+01  -6.0 7.18e+00  -5.9 1.00e+00 2.35e-01h  1
 131 -2.1982298e-01 8.53e-02 1.27e+01  -6.0 2.43e+01  -6.3 6.25e-01 6.55e-01h  1
 132 -2.1989905e-01 8.36e-02 4.65e+01  -6.0 4.69e+01  -6.8 5.55e-01 4.71e-02h  1
 133 -2.2045104e-01 1.70e-01 8.86e+01  -6.0 1.39e+02  -7.3 1.00e+00 3.09e-01h  1
 134 -2.2124710e-01 1.93e+00 8.42e+01  -6.0 5.33e+03  -7.8 6.77e-03 2.18e-02h  1
 135 -2.2266245e-01 1.64e+00 8.52e+01  -6.0 8.04e+02  -8.2 3.31e-03 1.49e-01h  1
 136 -2.2247843e-01 6.43e-01 1.38e+02  -6.0 1.11e+02  -6.9 1.03e-02 8.39e-01h  1
 137 -2.2265423e-01 1.49e-01 9.56e+01  -6.0 1.71e+00  -3.8 6.29e-01 8.32e-01h  1
 138 -2.2265957e-01 1.38e-01 8.85e+01  -6.0 4.04e-01  -4.3 1.00e+00 7.50e-02h  1
 139 -2.2272460e-01 4.40e-03 7.83e+00  -6.0 6.81e-01  -4.7 8.03e-01 1.00e+00f  1
iter    objective    inf_pr   inf_du lg(mu)  ||d||  lg(rg) alpha_du alpha_pr  ls
 140 -2.2272421e-01 2.05e-03 3.64e+01  -6.0 1.14e-01  -3.4 1.00e+00 5.34e-01h  1
 141 -2.2272455e-01 2.05e-06 5.59e+01  -6.0 5.99e-02  -3.9 7.22e-01 1.00e+00f  1
 142 -2.2274441e-01 8.20e-05 1.83e+02  -6.0 3.38e-01  -4.4 1.00e+00 1.00e+00h  1
 143 -2.2278794e-01 2.19e-04 9.96e+02  -6.0 5.39e-01  -4.8 5.15e-01 1.00e+00h  1
 144 -2.2280380e-01 1.08e-04 9.41e+01  -6.0 3.40e-01  -4.4 1.00e+00 6.92e-01h  1
 145 -2.2282917e-01 1.57e-04 6.32e+01  -6.0 8.33e-01  -4.9 1.00e+00 4.25e-01f  1
 146 -2.2283770e-01 3.46e-04 6.23e+01  -6.0 1.42e+00  -5.4 9.19e-01 1.00e+00f  1
 147 -2.2292958e-01 1.64e-02 1.59e+03  -6.0 4.20e+00  -5.8 4.76e-01 1.00e+00h  1
 148 -2.2296349e-01 1.39e-02 1.20e+03  -6.0 1.34e+01  -6.3 3.27e-01 1.69e-01h  1
 149 -2.2299685e-01 1.42e-02 1.14e+03  -6.0 4.30e+01  -6.8 2.95e-01 5.20e-02f  1
iter    objective    inf_pr   inf_du lg(mu)  ||d||  lg(rg) alpha_du alpha_pr  ls
 150 -2.2311353e-01 9.76e-02 1.90e+02  -6.0 3.78e+02  -7.3 2.52e-02 2.65e-02h  1
 151 -2.2371549e-01 1.25e+00 4.66e+02  -6.0 4.67e+01  -6.8 3.34e-02 6.22e-01f  1
 152 -2.2399550e-01 2.71e+00 1.14e+03  -6.0 1.71e+01  -6.4 3.85e-01 1.00e+00f  1
 153 -2.2386958e-01 2.21e+00 9.34e+02  -6.0 1.78e+01  -5.1 4.44e-01 1.85e-01h  1
 154 -2.2295327e-01 8.11e-01 2.81e+02  -6.0 3.85e+01  -5.6 6.03e-01 7.96e-01h  1
 155 -2.2323272e-01 6.89e-02 9.76e+00  -6.0 7.83e+00  -6.0 9.71e-01 1.00e+00h  1
 156 -2.2395727e-01 2.06e-01 5.78e+01  -6.0 4.03e+01  -6.5 1.00e+00 5.29e-01h  1
 157 -2.2492232e-01 1.19e+00 4.62e+01  -6.0 5.73e+01  -7.0 2.21e-01 3.29e-01h  1
 158 -2.2493670e-01 1.17e+00 4.50e+01  -6.0 1.74e+02  -7.5 3.67e-05 1.52e-02h  1
 159 -2.2494172e-01 1.17e+00 4.61e+01  -6.0 7.05e+03  -8.0 1.12e-06 2.87e-04f  2
iter    objective    inf_pr   inf_du lg(mu)  ||d||  lg(rg) alpha_du alpha_pr  ls
 160 -2.2499449e-01 1.13e+00 4.38e+01  -6.0 1.98e+02  -7.5 1.65e-02 3.79e-02h  1
 161 -2.2519382e-01 1.13e+00 3.78e+01  -6.0 3.79e+02  -8.0 3.17e-01 3.72e-02f  1
 162 -2.2560162e-01 8.80e-01 5.02e+01  -6.0 2.02e+02  -7.6 4.00e-05 2.11e-01f  1
 163 -2.2707299e-01 6.77e-01 3.30e+01  -6.0 5.38e+02  -8.1 6.12e-01 3.33e-01h  1
 164 -2.2971690e-01 2.90e+00 2.59e+01  -6.0 1.33e+03  -8.5 2.04e-01 2.90e-01h  1
 165 -2.2996854e-01 2.77e+00 2.47e+01  -6.0 5.99e+02  -8.1 1.46e-02 4.78e-02h  1
 166 -2.3000677e-01 2.76e+00 2.42e+01  -6.0 1.28e+03  -8.6 1.60e-05 4.34e-03h  1
 167 -2.3001943e-01 2.76e+00 2.42e+01  -6.0 3.63e+05  -9.1 6.76e-08 1.73e-04f  1
 168 -2.3007576e-01 2.74e+00 2.41e+01  -6.0 1.50e+03  -8.6 4.44e-03 5.72e-03h  1
 169 -2.3011093e-01 2.74e+00 2.40e+01  -6.0 1.09e+04  -9.1 8.92e-04 2.40e-03f  1
iter    objective    inf_pr   inf_du lg(mu)  ||d||  lg(rg) alpha_du alpha_pr  ls
 170 -2.3012921e-01 2.69e+00 2.36e+01  -6.0 2.45e+02  -7.8 5.32e-02 1.81e-02f  1
 171 -2.3059113e-01 2.42e+00 3.04e+01  -6.0 4.57e+02  -8.3 1.73e-01 1.17e-01f  1
 172 -2.3146390e-01 2.30e+00 2.63e+01  -6.0 8.16e+02  -8.7 3.53e-04 1.22e-01h  1
 173 -2.3265701e-01 1.88e+00 5.26e+01  -6.0 4.26e+02  -8.3 4.02e-01 3.60e-01h  1
 174 -2.3336065e-01 1.77e+00 4.84e+01  -6.0 1.05e+03  -8.8 2.11e-01 1.09e-01h  1
 175 -2.3355855e-01 1.65e+00 5.25e+01  -6.0 3.17e+02  -8.4 5.49e-01 7.79e-02h  1
 176 -2.3403224e-01 1.55e+00 1.79e+02  -6.0 1.30e+03  -8.8 2.10e-01 7.96e-02h  1
 177 -2.3496331e-01 1.10e+00 1.90e+03  -6.0 3.59e+02  -8.4 9.17e-01 4.33e-01h  1
 178 -2.3692088e-01 1.23e+01 1.29e+03  -6.0 2.17e+03  -8.9 3.33e-01 3.29e-01h  1
 179 -2.3840044e-01 8.78e+00 7.11e+02  -6.0 7.01e+02  -8.5 4.08e-01 4.97e-01h  1
iter    objective    inf_pr   inf_du lg(mu)  ||d||  lg(rg) alpha_du alpha_pr  ls
 180 -2.4107206e-01 3.52e+01 1.55e+05  -6.0 6.25e+03  -8.9 7.10e-03 1.82e-01h  1
 181 -2.3993451e-01 2.75e+01 1.65e+03  -6.0 1.91e+03  -8.5 2.43e-01 1.00e+00H  1
 182 -2.4187181e-01 1.07e+01 3.90e+01  -6.0 6.83e+02  -8.1 6.82e-01 1.00e+00h  1
 183 -2.4212893e-01 1.02e+00 6.51e+02  -6.0 1.77e+01  -6.8 4.26e-02 1.00e+00h  1
 184 -2.4224618e-01 1.81e+00 2.10e+02  -6.0 1.11e+01  -6.3 5.54e-01 8.92e-01h  1
 185 -2.4232157e-01 6.31e-01 4.23e-01  -6.0 4.25e+00  -5.9 1.00e+00 1.00e+00h  1
 186 -2.4255458e-01 4.23e+00 3.16e+00  -6.0 2.17e+01  -6.4 8.52e-01 6.77e-01h  1
 187 -2.4263805e-01 4.68e+00 6.49e+00  -6.0 2.18e+01  -6.9 1.00e+00 2.65e-01h  1
 188 -2.4284110e-01 1.24e+00 3.28e+00  -6.0 5.70e+01  -7.3 1.00e+00 7.61e-01h  1
 189 -2.4341814e-01 5.48e-01 1.19e+00  -6.0 1.65e+02  -7.8 1.00e+00 1.00e+00h  1
iter    objective    inf_pr   inf_du lg(mu)  ||d||  lg(rg) alpha_du alpha_pr  ls
 190 -2.4492042e-01 4.04e+00 2.76e+00  -6.0 4.49e+02  -8.3 1.00e+00 1.00e+00h  1
 191 -2.4511922e-01 3.82e+00 7.10e+00  -6.0 7.91e+02  -8.8 1.23e-01 6.90e-02h  1
 192 -2.4735571e-01 1.34e+01 4.59e+01  -6.0 1.57e+03  -9.3 8.36e-02 4.86e-01h  1
 193 -2.4694863e-01 1.14e+01 5.48e+03  -6.0 1.05e+03  -7.9 9.86e-02 2.26e-01h  1
 194 -2.4696542e-01 1.13e+01 4.95e+03  -6.0 6.60e+02  -8.4 2.52e-01 9.35e-03h  1
 195 -2.4713098e-01 1.07e+01 3.90e+03  -6.0 1.02e+03  -8.9 2.49e-01 5.71e-02h  1
 196 -2.4745832e-01 9.67e+00 3.51e+03  -6.0 9.93e+02  -9.4 1.03e-01 1.24e-01h  1
 197 -2.4867343e-01 9.10e+00 2.03e+02  -6.0 7.37e+02  -8.9 1.81e-01 9.10e-01h  1
 198 -2.4881332e-01 9.30e+00 3.07e+03  -6.0 6.47e+03  -9.4 3.57e-02 5.39e-02h  1
 199 -2.4973038e-01 1.24e+01 2.66e+03  -6.0 6.58e+03  -9.9 2.70e-02 1.33e-01h  1
iter    objective    inf_pr   inf_du lg(mu)  ||d||  lg(rg) alpha_du alpha_pr  ls
 200 -2.4979947e-01 1.20e+01 2.55e+03  -6.0 2.86e+04 -10.4 4.82e-02 4.04e-02h  1
 201 -2.4983795e-01 8.59e+00 1.64e+03  -6.0 6.95e+02  -9.0 1.56e-01 3.96e-01h  1
 202 -2.5108697e-01 1.62e+01 1.26e+03  -6.0 3.04e+03  -9.5 3.39e-01 2.23e-01h  1
 203 -2.5325011e-01 1.80e+01 1.22e+03  -6.0 9.69e+02  -9.1 4.98e-01 8.89e-01h  1
 204 -2.5465263e-01 1.27e+01 3.16e+03  -6.0 7.99e+02  -9.6 2.49e-02 5.10e-01h  1
 205 -2.5557635e-01 1.29e+01 4.60e+03  -6.0 1.72e+03  -9.1 9.26e-02 2.00e-01h  1
 206 -2.5642823e-01 1.52e+01 4.38e+03  -6.0 2.68e+04  -9.6 3.42e-02 1.20e-02h  1
 207 -2.5619076e-01 5.01e+00 3.76e+03  -6.0 4.33e+02  -9.2 5.12e-01 7.45e-01h  1
 208 -2.5637457e-01 4.19e+00 2.92e+03  -6.0 7.49e+02  -9.7 1.09e-02 1.81e-01h  1
 209 -2.5698515e-01 2.57e+00 1.06e+06  -6.0 3.35e+02  -9.2 7.93e-03 7.69e-01f  1
iter    objective    inf_pr   inf_du lg(mu)  ||d||  lg(rg) alpha_du alpha_pr  ls
 210 -2.5695566e-01 7.60e-02 3.57e+02  -6.0 2.48e+01  -7.9 3.19e-01 1.00e+00h  1
 211 -2.5700738e-01 1.17e+00 1.15e+02  -6.0 1.01e+01  -6.6 2.95e-01 7.11e-01h  1
 212 -2.5701063e-01 1.75e+00 4.32e+00  -6.0 1.71e+01  -7.1 9.89e-01 1.00e+00f  1
 213 -2.5710390e-01 1.53e+01 2.75e+01  -6.0 8.46e+01  -7.5 1.58e-01 2.39e-01h  1
 214 -2.5707155e-01 1.46e+01 5.32e+01  -6.0 4.28e+01  -8.0 6.87e-01 2.77e-01h  1
 215 -2.5712570e-01 6.09e+00 2.23e+01  -6.0 6.52e+00  -6.7 8.99e-01 6.16e-01h  1
 216 -2.5718378e-01 2.85e+00 1.57e+01  -6.0 7.11e+00  -7.2 1.00e+00 5.31e-01h  1
 217 -2.5719313e-01 3.46e-01 5.23e+01  -6.0 1.95e+01  -7.6 5.46e-01 1.00e+00h  1
 218 -2.5726718e-01 5.19e-02 1.13e+01  -6.0 4.15e+01  -8.1 1.00e+00 1.00e+00h  1
 219 -2.5722965e-01 8.48e-01 1.47e+02  -6.0 7.98e+01  -8.6 7.10e-01 1.00e+00h  1
iter    objective    inf_pr   inf_du lg(mu)  ||d||  lg(rg) alpha_du alpha_pr  ls
 220 -2.5746995e-01 4.87e-01 1.41e+02  -6.0 2.70e+02  -9.1 1.00e+00 1.00e+00h  1
 221 -2.5813515e-01 1.86e+01 7.11e+01  -6.0 1.44e+03  -9.5 8.08e-01 8.23e-01h  1
 222 -2.5814306e-01 1.79e+01 6.89e+01  -6.0 2.10e+03 -10.0 5.85e-02 3.92e-02h  1
 223 -2.5838541e-01 1.14e+00 1.77e+01  -6.0 4.65e+02  -9.6 1.00e+00 1.00e+00f  1
 224 -2.5843681e-01 5.80e+01 2.09e+02  -6.0 7.72e+03 -10.1 3.94e-02 2.41e-01h  1
 225 -2.5847343e-01 5.58e+01 1.10e+03  -6.0 4.14e+03 -10.5 2.32e-01 4.03e-02h  1
 226 -2.5926533e-01 4.14e+01 4.86e+03  -6.0 1.29e+04 -11.0 3.97e-02 2.62e-01h  1
 227 -2.5955486e-01 3.34e+01 3.98e+03  -6.0 6.12e+03    -  1.55e-01 1.95e-01h  1
 228 -2.5954444e-01 3.13e+01 3.60e+03  -6.0 5.52e+03    -  2.48e-01 6.29e-02h  1
 229 -2.5951732e-01 2.03e+01 2.36e+03  -6.0 4.07e+03    -  2.85e-01 3.50e-01h  1
iter    objective    inf_pr   inf_du lg(mu)  ||d||  lg(rg) alpha_du alpha_pr  ls
 230 -2.5957112e-01 1.94e+01 2.24e+03  -6.0 2.97e+03 -10.6 1.30e-01 4.62e-02h  1
 231 -2.6007237e-01 9.75e+00 4.81e+02  -6.0 3.45e+03    -  2.03e-01 8.08e-01h  1
 232 -2.6046110e-01 4.16e+01 4.85e+02  -6.0 1.05e+03    -  5.31e-03 1.00e+00h  1
 233 -2.6046278e-01 4.11e+01 4.80e+02  -6.0 4.49e+03    -  4.05e-02 1.13e-02h  1
 234 -2.6039410e-01 2.86e+01 3.46e+02  -6.0 4.67e+02    -  1.64e-01 2.80e-01h  1
 235 -2.6037983e-01 1.25e+01 8.36e+01  -6.0 3.42e+02    -  3.54e-01 7.57e-01h  1
 236 -2.6033500e-01 1.07e+00 8.19e+02  -6.0 2.69e+02    -  3.61e-03 1.00e+00h  1
 237 -2.6034683e-01 3.52e-01 1.06e+01  -6.0 6.47e+01  -8.4 6.17e-01 1.00e+00h  1
 238 -2.6041653e-01 4.65e+00 1.25e+01  -6.0 1.12e+03    -  1.26e-01 6.35e-01H  1
 239 -2.6048614e-01 2.12e+01 1.42e+02  -6.0 5.02e+03    -  3.64e-02 8.46e-01F  1
iter    objective    inf_pr   inf_du lg(mu)  ||d||  lg(rg) alpha_du alpha_pr  ls
 240 -2.6049500e-01 1.91e+01 1.18e+02  -6.0 3.63e+03  -7.9 2.50e-01 9.76e-02h  3
 241 -2.6042996e-01 2.29e+00 2.38e+01  -6.0 3.54e+02  -8.4 6.55e-01 1.00e+00h  1
 242 -2.6041565e-01 1.26e-01 3.34e-01  -6.0 8.09e+01  -8.9 1.00e+00 1.00e+00h  1
 243 -2.6040507e-01 1.56e+00 6.77e-01  -6.0 2.75e+02  -9.4 9.66e-01 1.00e+00h  1
 244 -2.6040823e-01 1.69e+00 4.32e+00  -6.0 4.96e+03    -  9.22e-02 2.42e-02h  1
 245 -2.6040364e-01 3.23e-01 7.35e-02  -6.0 1.01e+02    -  1.00e+00 1.00e+00h  1
 246 -2.6040313e-01 1.32e-02 1.83e-01  -6.0 7.94e+00  -7.1 8.04e-01 1.00e+00h  1
 247 -2.6040728e-01 5.72e-02 7.20e-03  -6.0 2.04e+01    -  1.00e+00 1.00e+00h  1
 248 -2.6040758e-01 1.58e-03 6.01e-05  -6.0 4.62e+00  -7.6 1.00e+00 1.00e+00h  1
 249 -2.6040913e-01 1.09e-02 1.68e-04  -6.0 1.38e+01  -8.1 1.00e+00 1.00e+00h  1
iter    objective    inf_pr   inf_du lg(mu)  ||d||  lg(rg) alpha_du alpha_pr  ls
 250 -2.6041347e-01 4.90e-02 4.14e-03  -6.0 4.06e+01  -8.6 1.00e+00 1.00e+00h  1
 251 -2.6042035e-01 1.03e+00 2.39e+00  -6.0 3.36e+03    -  1.24e-01 6.87e-02h  1
 252 -2.6041930e-01 1.67e+00 2.30e+00  -6.0 4.26e+02    -  1.00e+00 1.00e+00h  1
 253 -2.6039699e-01 3.71e-01 7.14e-01  -6.0 1.81e+02    -  8.45e-01 1.00e+00h  1
 254 -2.6041334e-01 4.28e-01 3.85e-01  -6.0 9.51e+01    -  8.08e-01 1.00e+00h  1
 255 -2.6041300e-01 7.94e-02 2.56e-03  -6.0 2.97e+01    -  1.00e+00 1.00e+00h  1
 256 -2.6041302e-01 3.24e-03 3.78e-05  -6.0 5.23e+00    -  1.00e+00 1.00e+00h  1
 257 -2.6041301e-01 7.94e-08 4.51e-08  -6.0 5.65e-02    -  1.00e+00 1.00e+00h  1
 258 -2.6093107e-01 2.54e+00 9.48e+01  -7.5 2.03e+03    -  2.78e-01 2.20e-01f  1
 259 -2.6103580e-01 2.73e+00 1.19e+02  -7.5 2.45e+03    -  9.09e-02 5.91e-02h  1
iter    objective    inf_pr   inf_du lg(mu)  ||d||  lg(rg) alpha_du alpha_pr  ls
 260 -2.6110962e-01 2.89e+00 1.21e+02  -7.5 5.12e+03    -  3.38e-02 3.09e-02h  1
 261 -2.6114955e-01 2.77e+00 1.44e+02  -7.5 1.20e+02  -9.0 4.25e-01 4.33e-02h  1
 262 -2.6141879e-01 2.48e+00 1.09e+02  -7.5 2.89e+02  -9.5 1.10e-01 2.59e-01h  1
 263 -2.6162576e-01 3.31e+00 9.24e+01  -7.5 4.24e+02 -10.0 2.25e-01 2.37e-01h  1
 264 -2.6179779e-01 3.43e+00 6.90e+01  -7.5 8.47e+02 -10.5 3.57e-01 2.08e-01h  1
 265 -2.6195130e-01 3.25e+00 7.12e+01  -7.5 2.33e+03    -  1.83e-04 1.80e-01h  1
 266 -2.6211802e-01 3.08e+00 4.45e+01  -7.5 1.98e+03    -  3.25e-01 2.45e-01h  1
 267 -2.6212639e-01 3.02e+00 6.34e+01  -7.5 3.26e+02 -10.1 2.54e-01 2.07e-02h  1
 268 -2.6213381e-01 2.92e+00 1.35e+02  -7.5 1.97e+01  -7.8 5.63e-01 3.12e-02h  1
 269 -2.6230222e-01 2.55e+00 8.66e+01  -7.5 2.02e+03    -  1.72e-02 2.91e-01h  1
iter    objective    inf_pr   inf_du lg(mu)  ||d||  lg(rg) alpha_du alpha_pr  ls
 270 -2.6241679e-01 1.07e+00 1.20e+02  -7.5 2.92e+01  -7.4 1.01e-04 6.89e-01h  1
 271 -2.6244856e-01 8.63e-01 1.79e+02  -7.5 1.73e+01  -7.9 5.66e-01 2.02e-01h  1
 272 -2.6252164e-01 8.05e-01 9.62e+01  -7.5 2.96e+01  -8.3 3.11e-01 3.42e-01h  1
 273 -2.6260732e-01 4.31e-01 4.39e+02  -7.5 5.30e+01  -8.8 1.27e-01 5.42e-01h  1
 274 -2.6263716e-01 3.03e-01 6.69e+02  -7.5 2.70e+01  -8.4 6.48e-01 3.22e-01h  1
 275 -2.6271331e-01 1.47e-01 6.79e+02  -7.5 9.79e+00  -8.0 1.00e+00 8.33e-01h  1
 276 -2.6274680e-01 1.10e+00 1.35e+07  -7.5 1.19e+02  -7.5 2.69e-04 5.45e-01h  1
 277 -2.6282726e-01 5.71e-01 7.76e+06  -7.5 3.99e+01  -7.1 4.95e-01 4.26e-01h  1
 278 -2.6286373e-01 1.14e-01 2.32e+06  -7.5 3.42e+01  -7.6 1.00e+00 7.01e-01h  1
 279 -2.6273185e-01 8.48e-02 5.22e+02  -7.5 1.17e+01  -7.2 1.00e+00 1.00e+00h  1
iter    objective    inf_pr   inf_du lg(mu)  ||d||  lg(rg) alpha_du alpha_pr  ls
 280 -2.6278401e-01 5.13e-02 3.04e+02  -7.5 2.24e+01  -7.6 3.75e-01 4.12e-01h  1
 281 -2.6277586e-01 1.79e-02 9.41e+01  -7.5 9.24e+00  -7.2 1.00e+00 6.90e-01h  1
 282 -2.6279887e-01 5.34e-03 6.84e-01  -7.5 3.85e+00  -6.8 5.71e-01 1.00e+00f  1
 283 -2.6280112e-01 5.05e-03 1.13e+00  -7.5 1.91e+01  -7.3 9.34e-01 6.03e-02h  1
 284 -2.6281316e-01 5.38e-02 1.01e+00  -7.5 1.48e+03    -  2.82e-01 5.55e-02h  2
 285 -2.6281518e-01 5.02e-02 1.32e+00  -7.5 6.02e+00  -7.8 7.49e-01 6.77e-02h  1
 286 -2.6282188e-01 6.81e-02 1.64e+00  -7.5 1.46e+03    -  2.42e-01 3.53e-02h  1
 287 -2.6281667e-01 6.39e-02 1.47e+00  -7.5 2.65e+02  -8.2 3.76e-02 6.18e-02h  3
 288 -2.6285195e-01 9.65e-02 6.45e-01  -7.5 2.29e+01  -8.7 4.38e-01 7.16e-01h  1
 289 -2.6286364e-01 1.04e-01 2.18e+00  -7.5 1.42e+03    -  3.19e-01 7.39e-02h  1
iter    objective    inf_pr   inf_du lg(mu)  ||d||  lg(rg) alpha_du alpha_pr  ls
 290 -2.6286218e-01 1.03e-01 2.31e+00  -7.5 1.25e+03  -9.2 1.70e-02 7.33e-03h  2
 291 -2.6287116e-01 1.01e-01 5.62e+00  -7.5 1.47e+02  -9.7 1.00e+00 2.59e-01h  1
 292 -2.6288820e-01 3.36e-01 5.97e+00  -7.5 1.25e+03    -  3.02e-01 1.34e-01h  1
 293 -2.6290421e-01 6.82e-01 3.42e+00  -7.5 3.43e+02 -10.1 5.57e-01 4.99e-01h  1
 294 -2.6291591e-01 3.79e-01 1.22e+01  -7.5 9.20e+01  -9.7 1.00e+00 5.00e-01h  1
 295 -2.6294054e-01 5.39e+00 9.52e-01  -7.5 1.90e+03    -  4.65e-02 2.85e-01h  1
 296 -2.6295148e-01 4.54e+00 8.71e+00  -7.5 9.73e+02    -  8.60e-02 2.15e-01h  1
 297 -2.6295048e-01 5.48e+00 1.13e+01  -7.5 8.92e+03    -  4.46e-05 2.65e-02h  1
 298 -2.6296424e-01 2.57e+00 5.77e+01  -7.5 5.28e+02    -  2.07e-02 5.39e-01h  1
 299 -2.6297370e-01 1.32e+00 1.64e+01  -7.5 2.76e+02    -  5.56e-01 5.00e-01h  1
iter    objective    inf_pr   inf_du lg(mu)  ||d||  lg(rg) alpha_du alpha_pr  ls
 300 -2.6299288e-01 4.43e-01 2.44e+00  -7.5 1.56e+02    -  1.00e+00 1.00e+00h  1
 301 -2.6300227e-01 3.09e-01 1.28e+02  -7.5 1.14e+02    -  5.17e-01 3.82e-01h  1
 302 -2.6302279e-01 4.79e-01 4.75e+02  -7.5 1.33e+02    -  1.00e+00 7.21e-01h  1
 303 -2.6302590e-01 1.78e-01 1.33e+06  -7.5 4.66e+01    -  1.98e-03 1.00e+00h  1
 304 -2.6303763e-01 8.66e-02 1.47e+02  -7.5 4.96e+01    -  1.00e+00 1.00e+00h  1
 305 -2.6304010e-01 3.08e-01 4.04e+01  -7.5 8.08e+01    -  7.41e-01 7.19e-01h  1
 306 -2.6302914e-01 1.69e-01 3.62e-02  -7.5 5.08e+01    -  1.00e+00 1.00e+00h  1
 307 -2.6303560e-01 1.70e-01 2.67e-01  -7.5 6.76e+01    -  1.48e-01 6.97e-01H  1
 308 -2.6303060e-01 1.18e-01 4.82e-01  -7.5 8.08e+01    -  7.13e-01 1.00e+00h  1
 309 -2.6303607e-01 1.59e-01 6.60e-01  -7.5 2.00e+02    -  1.00e+00 6.16e-01H  1
iter    objective    inf_pr   inf_du lg(mu)  ||d||  lg(rg) alpha_du alpha_pr  ls
 310 -2.6303213e-01 2.61e-02 2.43e+00  -7.5 2.26e+01    -  5.22e-03 1.00e+00h  1
 311 -2.6303190e-01 1.37e-03 1.44e-04  -7.5 8.70e+00    -  1.00e+00 1.00e+00h  1
 312 -2.6303243e-01 6.31e-03 8.30e-04  -7.5 1.86e+01    -  1.00e+00 1.00e+00h  1
 313 -2.6303219e-01 2.58e-05 8.38e-07  -7.5 1.20e+00    -  1.00e+00 1.00e+00h  1
 314 -2.6303219e-01 2.02e-08 2.22e-09  -7.5 3.33e-02    -  1.00e+00 1.00e+00h  1
 315 -2.6304184e-01 1.96e-02 4.40e+00  -9.0 4.64e+02    -  6.94e-01 2.15e-01h  1
 316 -2.6304599e-01 3.31e-02 5.76e+00  -9.0 3.40e+02    -  8.78e-01 1.48e-01h  1
 317 -2.6304849e-01 7.72e-02 5.14e+00  -9.0 2.47e+02    -  8.20e-01 1.47e-01h  1
 318 -2.6305014e-01 1.00e+00 2.33e+00  -9.0 1.89e+02    -  6.76e-01 5.43e-01h  1
 319 -2.6305055e-01 2.62e-01 8.27e-02  -9.0 7.90e+01    -  1.00e+00 9.65e-01h  1
iter    objective    inf_pr   inf_du lg(mu)  ||d||  lg(rg) alpha_du alpha_pr  ls
 320 -2.6305042e-01 2.90e-03 4.68e-05  -9.0 7.78e+00    -  1.00e+00 1.00e+00h  1
 321 -2.6305042e-01 3.31e-08 2.35e-10  -9.0 2.64e-02    -  1.00e+00 1.00e+00h  1
 322 -2.6305042e-01 2.83e-10 2.63e-14  -9.0 6.60e-06    -  1.00e+00 1.00e+00h  1

Number of Iterations....: 322

                                   (scaled)                 (unscaled)
Objective...............:  -2.6305041843907562e-01   -2.6305041843907562e-01
Dual infeasibility......:   2.6348287422758380e-14    2.6348287422758380e-14
Constraint violation....:   2.8325275382590914e-10    2.8325275382590914e-10
Complementarity.........:   9.0910312594202684e-10    9.0910312594202684e-10
Overall NLP error.......:   9.0910312594202684e-10    9.0910312594202684e-10


Number of objective function evaluations             = 382
Number of objective gradient evaluations             = 322
Number of equality constraint evaluations            = 382
Number of inequality constraint evaluations          = 383
Number of equality constraint Jacobian evaluations   = 327
Number of inequality constraint Jacobian evaluations = 327
Number of Lagrangian Hessian evaluations             = 322
Total CPU secs in IPOPT (w/o function evaluations)   =    726.910
Total CPU secs in NLP function evaluations           =      9.939

EXIT: Optimal Solution Found.
